
Gurobi 9.0.3 (win64) logging started Sat Feb  5 17:52:31 2022

Changed value of parameter LogFile to logs\CRVRP_5-2-7-100_2_8.LOG
   Prev: logs\CRVRP_5-2-7-100_2_7.LOG  Default: 
Changed value of parameter Seed to 43690277
   Prev: 1917208217  Min: 0  Max: 2000000000  Default: 0
Parameter Threads unchanged
   Value: 2  Min: 0  Max: 1024  Default: 0
Parameter TimeLimit unchanged
   Value: 60.0  Min: 0.0  Max: inf  Default: inf
Parameter Symmetry unchanged
   Value: 2  Min: -1  Max: 2  Default: -1
Parameter Cuts unchanged
   Value: 2  Min: -1  Max: 3  Default: -1
Parameter PreDepRow unchanged
   Value: 1  Min: -1  Max: 1  Default: -1
Parameter ScaleFlag unchanged
   Value: 1  Min: -1  Max: 3  Default: -1
Parameter NormAdjust unchanged
   Value: 0  Min: -1  Max: 3  Default: -1
Gurobi Optimizer version 9.0.3 build v9.0.3rc0 (win64)
Optimize a model with 1001 rows, 810 columns and 4006 nonzeros
Model fingerprint: 0xf8384c0d
Variable types: 32 continuous, 778 integer (522 binary)
Coefficient statistics:
  Matrix range     [1e+00, 1e+06]
  Objective range  [1e+00, 1e+00]
  Bounds range     [1e+00, 1e+04]
  RHS range        [1e+00, 1e+06]
Presolve removed 618 rows and 515 columns
Presolve time: 0.02s
Presolved: 383 rows, 295 columns, 2046 nonzeros
Variable types: 15 continuous, 280 integer (230 binary)

Root relaxation: objective 3.337200e+02, 202 iterations, 0.00 seconds

    Nodes    |    Current Node    |     Objective Bounds      |     Work
 Expl Unexpl |  Obj  Depth IntInf | Incumbent    BestBd   Gap | It/Node Time

     0     0  333.71998    0   23          -  333.71998      -     -    0s
H    0     0                    1492.3776775  333.71998  77.6%     -    0s
H    0     0                     896.0099705  333.71998  62.8%     -    0s
     0     0  338.23109    0   63  896.00997  338.23109  62.3%     -    0s
H    0     0                     845.7686758  338.23109  60.0%     -    0s
     0     0  348.78857    0   52  845.76868  348.78857  58.8%     -    0s
     0     0  348.78857    0   55  845.76868  348.78857  58.8%     -    0s
     0     0  355.87244    0   63  845.76868  355.87244  57.9%     -    0s
H    0     0                     783.2553157  355.87244  54.6%     -    0s
     0     0  355.95871    0   61  783.25532  355.95871  54.6%     -    0s
     0     0  355.95871    0   61  783.25532  355.95871  54.6%     -    0s
     0     0  362.98129    0   53  783.25532  362.98129  53.7%     -    0s
H    0     0                     716.5412053  362.98129  49.3%     -    0s
     0     0  363.36317    0   57  716.54121  363.36317  49.3%     -    0s
     0     0  367.55466    0   61  716.54121  367.55466  48.7%     -    0s
H    0     0                     688.1865185  367.55466  46.6%     -    0s
     0     0  367.75384    0   63  688.18652  367.75384  46.6%     -    0s
     0     0  367.75384    0   45  688.18652  367.75384  46.6%     -    0s
H    0     0                     645.0882671  367.75384  43.0%     -    0s
H    0     0                     580.0876854  367.75384  36.6%     -    0s
     0     2  367.75384    0   45  580.08769  367.75384  36.6%     -    0s
H    4     5                     502.5759277  368.88568  26.6%  39.5    0s
H   65    36                     496.7885307  369.69639  25.6%  17.2    0s
*  218    69              20     489.3260285  438.91061  10.3%  15.0    0s
*  704    61              19     485.7240517  466.55222  3.95%  14.9    1s
*  743    75              20     479.5916038  466.55222  2.72%  15.0    1s
*  751    75              24     474.0901877  466.55222  1.59%  15.0    1s

Cutting planes:
  Learned: 1
  Gomory: 7
  Cover: 2
  Implied bound: 44
  Projected implied bound: 1
  Clique: 5
  MIR: 34
  StrongCG: 7
  Flow cover: 127
  Inf proof: 4
  Zero half: 4
  RLT: 120
  Relax-and-lift: 39

Explored 870 nodes (12654 simplex iterations) in 1.45 seconds
Thread count was 2 (of 8 available processors)

Solution count 10: 474.09 479.592 485.724 ... 716.541

Optimal solution found (tolerance 1.00e-04)
Best objective 4.740901877086e+02, best bound 4.740901877086e+02, gap 0.0000%
Discarded solution information
